50

100 25 268
100 12 278
98 21 277
97 5 180
97 27 290
94 8 233
92 6 148
92 14 157
91 4 281
85 11 263
84 16 184
84 17 193
83 22 165
82 15 149
82 22 257
80 8 256
78 11 205
78 14 212
78 4 163
78 23 176
75 4 197
74 8 295
73 13 219
72 14 295
71 21 168
70 1 198
70 8 152
68 16 290
66 7 185
65 2 204
65 3 249
54 16 171
50 2 281
50 8 207
50 3 145
49 8 162
49 12 272
49 11 251
47 0 190
44 6 241
44 0 196
42 0 293
42 13 154
41 2 193
41 11 175
41 9 204
40 10 227
36 7 157
36 1 285
30 6 176
